p cnf 100 240
53 -76 -36 0
40 25 -56 0
-16 96 -54 0
71 40 -59 0
-77 -4 -89 0
11 -74 -59 0
74 64 -1 0
-93 79 52 0
35 -58 12 0
-93 -33 60 0
77 -97 -95 0
-11 12 -24 0
-76 19 35 0
71 -66 45 0
14 6 67 0
29 -23 52 0
48 30 -18 0
-46 -47 -12 0
-97 -53 -7 0
62 56 39 0
32 -60 67 0
53 100 -14 0
83 -7 -58 0
-16 -58 -43 0
-73 39 6 0
42 -33 -71 0
70 53 -47 0
-91 -39 -68 0
-25 -97 -56 0
-17 -61 -47 0
99 -64 -68 0
-90 -92 -91 0
-21 -31 30 0
-6 35 8 0
41 67 55 0
-65 39 25 0
-28 -90 -61 0
99 17 -57 0
6 -61 -40 0
59 -30 -9 0
-7 88 2 0
-22 -70 55 0
-64 37 -62 0
-29 -24 86 0
-49 82 -26 0
-16 -44 77 0
-95 -89 42 0
-38 80 -93 0
71 84 50 0
44 -9 48 0
24 -23 19 0
18 -61 -99 0
45 -83 -29 0
-73 -86 2 0
-69 -2 -38 0
-56 96 67 0
-11 -76 -95 0
51 29 -88 0
69 -32 43 0
83 36 -90 0
35 83 5 0
-47 42 25 0
100 87 -63 0
44 -95 88 0
4 36 73 0
99 -53 49 0
76 66 -42 0
79 -93 12 0
98 35 82 0
62 88 -30 0
-72 21 -53 0
64 -24 -9 0
-53 22 -26 0
-15 -50 -49 0
-20 41 -87 0
53 -9 23 0
-63 -24 40 0
-1 -2 -10 0
67 -12 -96 0
48 89 -51 0
-24 4 -84 0
82 79 16 0
-52 69 66 0
-63 -86 -10 0
-62 -15 -53 0
27 -62 -8 0
-45 29 -17 0
-35 10 18 0
30 -79 -55 0
44 -38 75 0
-98 -72 -95 0
-69 97 -4 0
-43 9 1 0
59 55 87 0
13 80 87 0
77 -25 -58 0
50 -76 -5 0
-35 -73 -77 0
48 -38 54 0
1 -68 43 0
-42 33 -75 0
-15 88 83 0
-9 100 4 0
94 -51 -6 0
71 -13 -50 0
-25 -98 89 0
53 49 -31 0
81 -10 41 0
40 80 -1 0
-2 -46 -87 0
-19 -73 -26 0
53 -81 25 0
-96 67 -79 0
73 10 44 0
-83 -49 56 0
26 51 -23 0
6 -81 72 0
23 -99 -56 0
-73 -16 -31 0
73 48 44 0
91 -1 56 0
75 4 -15 0
-24 20 -77 0
73 -94 93 0
27 65 -8 0
-58 -46 -61 0
20 24 -32 0
79 -55 -44 0
-37 2 -38 0
26 -60 1 0
23 -46 -72 0
-89 62 -1 0
88 -53 -58 0
-72 -75 -59 0
-12 -79 -55 0
-3 67 69 0
95 58 85 0
-47 59 -18 0
-5 11 6 0
-82 -60 -87 0
33 -73 -27 0
44 39 -43 0
-89 -48 34 0
16 -70 95 0
-62 -93 -30 0
-22 -38 -42 0
-60 -52 -90 0
-41 59 57 0
76 -34 -39 0
7 43 -95 0
6 60 78 0
52 -71 -34 0
-90 64 -51 0
46 -71 -4 0
-97 74 -28 0
-53 10 54 0
27 -80 7 0
-83 -66 71 0
-65 -71 23 0
-42 -44 -4 0
-88 -81 72 0
77 -5 9 0
-88 79 -19 0
97 -45 -51 0
66 6 -29 0
3 6 -52 0
13 -46 18 0
-22 -83 46 0
-37 92 53 0
4 58 86 0
6 26 36 0
88 98 -78 0
73 -19 17 0
-95 93 32 0
93 -27 -74 0
-80 6 -57 0
57 58 31 0
-82 -81 -30 0
-60 -57 97 0
-60 34 -46 0
69 2 -90 0
42 37 -33 0
61 -79 25 0
61 -28 -59 0
-9 59 34 0
100 -51 -96 0
29 58 82 0
99 71 -14 0
-78 26 51 0
91 67 23 0
-63 -56 -31 0
38 86 46 0
-23 -84 -69 0
-76 -69 -95 0
73 -94 70 0
-100 3 -27 0
-48 18 -32 0
58 -29 82 0
31 29 39 0
-70 -18 -15 0
x -1 3 6 -7 8 -12 -14 -16 18 23 27 30 -33 -35 -36 -38 42 43 -44 45 46 -49 51 52 -53 -58 60 61 -62 -64 65 -67 68 70 71 72 -73 -76 79 81 82 -83 84 -85 86 -89 -92 93 -94 98 99 0
x -1 2 5 10 -12 13 -17 18 22 23 -26 -28 34 38 40 41 -43 44 -45 47 48 52 -54 -55 -56 -57 -58 59 -61 -62 63 64 -65 -66 -67 68 69 -76 -78 79 -80 82 -87 -88 -89 90 93 94 96 99 100 0
x -4 -5 -7 -10 13 -17 18 -19 20 -21 -22 -23 -30 -34 -36 37 47 48 49 -50 52 -53 -58 59 61 -62 -63 -64 65 -67 -68 69 -70 -73 -74 -75 -78 79 80 -82 86 90 91 -92 -93 -94 95 -96 97 -99 -100 0
x -1 3 4 -5 -7 8 -9 11 -12 13 14 15 -16 17 21 22 23 -24 26 -27 -32 35 36 -38 39 -41 43 46 -47 -48 49 -50 -51 -53 55 59 -62 63 64 66 67 -70 -72 73 74 -76 79 -80 -82 88 90 -91 -93 -97 98 99 0
x 1 -2 -3 -4 -11 -12 -13 14 15 20 23 24 -25 -26 29 30 34 -37 38 -39 -40 43 45 47 53 54 56 -58 -60 -64 67 68 -69 -70 -73 -74 77 -79 84 92 99 -100 0
x 1 2 3 4 -5 -7 8 10 12 -14 17 -18 19 -20 22 25 26 -29 -30 33 35 -37 38 -43 47 49 50 -55 58 61 62 63 66 68 -71 74 76 -77 -80 85 86 87 89 93 94 95 97 -99 0
x -4 5 7 9 10 13 -14 18 19 21 -23 24 25 27 -29 32 33 35 36 38 -39 44 -49 -52 53 -54 58 -61 62 63 64 66 67 71 73 75 77 79 -80 81 -82 -88 89 90 91 -92 93 -94 -95 -96 -97 98 0
x -1 -2 -3 4 6 8 11 13 -15 16 -19 -22 -25 26 27 -30 31 -32 -34 -35 39 41 42 44 45 -46 47 48 49 -50 55 56 -57 58 59 60 -61 64 71 74 -77 -78 79 81 -83 -84 -91 93 -94 -95 96 100 0
x 2 -4 6 -7 8 9 -14 16 -17 -19 20 25 -26 28 29 33 34 35 38 39 40 41 -47 -48 50 -52 -53 54 -56 -57 60 61 62 -64 -65 -66 67 69 -72 -75 -76 -77 80 81 -85 -86 92 96 99 0
x -2 4 5 -6 7 8 12 13 -17 19 21 -22 25 -26 30 31 -33 34 35 -36 -37 39 -41 42 43 46 -48 -51 -53 54 -55 58 -59 64 -65 -66 -71 73 -74 -75 -76 -83 -86 -87 91 -96 97 -98 0
x 3 -4 -6 -9 -10 -13 14 15 18 19 20 21 23 -24 26 27 32 35 38 41 42 44 45 47 50 -51 53 55 56 -59 -60 -63 -64 -65 -67 -68 70 -75 -76 -77 -78 -80 81 -82 83 85 -90 -91 -92 93 96 -98 0
x -4 5 -6 -8 9 -10 11 12 14 16 -20 -22 -24 -25 -26 -29 32 -34 -35 39 -40 -42 45 47 50 -51 57 58 59 -63 69 -71 73 -76 -77 -79 80 85 -87 95 96 -100 0
x 1 -4 5 7 -14 15 -16 17 18 -19 21 -26 -28 -30 32 34 35 36 -37 38 -41 -46 48 49 -52 -53 54 59 -60 61 -62 63 64 -67 70 -73 -77 -78 -84 -86 94 -96 -98 -99 -100 0
x 1 2 -4 7 -8 -9 -10 11 -14 -15 16 17 18 -19 -20 -22 23 -24 -25 -26 30 -31 32 33 -34 -38 -39 40 -41 -43 -44 45 48 -51 -52 -54 55 57 59 60 -61 -62 -66 -70 71 73 75 -78 -79 82 -85 -86 -87 -89 90 91 92 96 98 0
x -1 -5 6 7 -8 12 13 16 -18 19 20 23 -27 -29 -30 31 -33 -34 38 -40 -43 -47 48 50 51 52 55 -57 -59 61 62 64 66 70 72 76 -80 84 -85 -86 87 -88 -90 93 94 95 96 -97 0
x 1 4 -5 8 10 -11 -14 -16 21 24 26 -27 -31 32 -34 -36 -38 -39 40 -42 -43 -44 -45 -47 48 51 52 55 -57 59 61 -66 -68 -69 -70 -71 -73 75 76 77 78 -81 -82 -83 -84 86 87 92 95 98 99 100 0
x -2 3 6 7 10 11 12 15 -17 19 -22 -25 -26 28 29 -31 33 -35 -36 37 -38 39 -42 45 -46 48 49 50 51 -56 -58 -62 -64 65 66 -72 74 -76 77 78 80 -82 83 -87 -88 89 -90 -93 -94 95 0
x 1 -2 -3 4 5 6 -7 12 -16 17 -18 19 20 -21 -22 -23 25 -26 29 -30 31 -32 -34 37 -38 40 42 -45 46 -48 -50 52 55 -60 61 64 -65 -66 -68 69 -70 -71 -72 73 -75 -77 -78 79 86 -90 94 -95 96 97 99 0
x 1 4 -5 6 -7 -8 -13 14 -18 19 23 25 26 -29 30 31 32 33 -37 -38 -39 41 43 44 -46 -47 -50 -53 54 55 57 61 -62 -63 -67 -68 -70 71 72 74 -77 78 84 85 86 90 -92 94 0
x 2 -6 7 9 -10 12 -14 19 -20 -29 -30 -31 -32 -33 -34 -35 -36 37 39 -40 -41 42 -44 -45 52 53 55 56 -62 -63 -64 65 -69 -70 72 74 -75 76 -77 -79 80 -81 -82 84 86 -91 -92 -93 -94 95 96 97 -100 0
x -1 -3 -5 6 -8 -9 11 -14 -15 16 -17 21 23 24 -25 -28 -29 -30 31 32 -33 34 35 37 -39 41 46 49 50 52 53 -56 -57 59 61 62 68 72 -80 -81 -82 86 87 -88 89 -90 91 -92 -93 96 -97 -99 -100 0
x -4 5 -7 -11 -13 14 15 19 -26 28 -31 37 -38 41 -43 44 -45 46 50 -52 -56 57 59 60 -62 67 70 71 74 75 -76 -79 83 86 87 89 91 94 -95 96 0
x 6 7 9 -12 13 -15 18 -19 20 21 -23 27 -28 29 33 -35 36 43 -45 48 -49 -54 55 -56 62 -64 -65 66 -67 70 -71 -72 73 -76 -78 -79 -81 -86 87 -89 93 96 99 0
x 1 3 -4 -5 -7 8 -10 11 -12 13 14 15 16 -18 19 21 -22 23 24 26 31 -32 -33 34 36 -37 -39 -41 43 -44 -46 -48 -53 54 -56 58 -59 61 -63 66 -67 68 69 71 -73 74 75 80 81 -82 -83 85 86 -87 90 91 92 93 -94 -95 -96 -97 98 -99 0
x 1 3 4 5 -7 -9 -10 15 -17 -20 -22 23 25 -29 31 32 33 -34 35 -37 42 44 45 -48 49 50 52 54 60 -61 -63 -64 65 68 69 -70 -72 73 -76 78 -80 -85 -86 87 88 -89 -93 -94 95 -99 100 0
x 6 -7 8 10 -12 -13 -14 17 18 -19 20 22 23 25 26 29 30 -31 32 34 -35 -37 -39 40 41 43 44 -46 -47 48 -49 50 51 55 57 58 -61 65 68 79 -80 83 87 -89 91 93 -94 -95 96 0
x -1 -2 -4 5 6 -7 13 -14 16 -21 22 -24 29 -30 -35 -38 40 -42 -44 -45 51 -52 54 -55 57 -59 60 61 62 -63 72 -78 80 81 84 -86 94 98 99 -100 0
x -3 -5 6 -7 10 -11 13 -20 -23 25 -26 -28 -30 33 -34 -36 -44 47 -48 -51 52 -54 -55 57 -61 64 65 68 -69 -70 -71 -73 -78 -82 83 85 -86 -87 88 -89 90 92 -93 94 -95 99 0
x 3 -4 -5 -6 -8 -9 -10 11 12 13 -15 -16 -19 -22 -32 33 -34 -35 -39 -40 -43 -45 46 -47 -49 -53 55 56 -58 -61 -65 66 -68 69 73 -76 -77 -79 81 -83 -87 88 89 -92 -94 -96 0
x 4 -5 -6 8 9 11 13 15 18 -20 -21 -22 23 -27 -28 34 36 -38 -39 -40 41 -42 43 -45 46 47 50 -51 52 53 55 57 -58 -59 -61 -62 64 66 67 -70 71 73 -77 -79 -80 81 82 -85 -87 88 -89 90 91 92 93 -94 -97 98 99 -100 0
x 1 -2 -5 -7 10 11 13 -14 15 -23 25 26 -27 -29 30 -31 32 -33 35 -36 37 39 40 -43 -44 -45 -49 50 -51 55 -60 -61 -64 67 68 -69 -70 -71 75 80 -83 -84 86 87 -88 -93 -95 -96 -97 0
x 2 -4 -7 8 9 17 -20 -21 -24 25 27 -28 31 -32 -33 34 -35 -36 37 39 40 -41 42 -44 -45 47 -48 -49 58 -59 61 -62 64 -65 69 -72 75 -78 -81 -82 -84 -86 90 92 -94 95 96 98 -99 0
x -1 -2 -3 4 6 11 -16 20 -22 -23 -25 -30 -33 36 -38 -39 -40 42 43 46 -47 51 55 57 -60 -62 -66 -68 69 72 -74 75 78 -79 -80 -82 83 86 -87 -88 -90 -91 -92 -94 97 -99 0
x 1 -5 -9 11 -12 -13 -14 -15 17 26 27 29 -31 32 -33 -37 -38 -39 42 -43 -44 45 -49 -52 53 -55 58 -59 60 -62 -63 64 65 67 68 -69 74 -76 81 85 87 -88 -92 93 96 98 -99 -100 0
x 2 3 -5 -11 -16 17 19 20 21 -25 -26 -27 -29 -30 -34 36 38 42 -43 45 -46 -47 51 54 -60 -62 -63 -65 66 -68 73 -74 -75 -76 -77 -78 -79 -85 -87 88 -90 -96 -98 -99 100 0
x -1 5 -6 -7 -8 -9 -12 -15 19 -20 -23 -25 26 -30 32 34 35 -39 40 42 44 45 -46 -50 -51 52 -56 57 58 59 -61 -62 64 65 -66 -71 75 79 -85 -86 -87 -89 -91 -93 95 -97 99 -100 0
x -1 -5 8 11 13 14 -16 -18 -20 22 23 -24 -25 27 28 -30 31 35 37 38 39 -44 -45 49 -50 51 -53 54 55 -58 -59 -60 -61 62 -65 67 71 -74 77 -80 81 -82 -84 85 -86 88 92 94 96 97 -99 -100 0
x -6 7 12 -13 -14 -17 -18 19 20 -21 22 -23 -24 26 -29 -31 -32 -33 -35 -37 43 -44 51 -52 -57 -60 62 63 -65 -69 -72 -73 74 -75 77 79 80 85 -86 87 -90 -91 -93 -94 95 97 -98 0
x 3 4 -5 10 11 -12 -13 15 16 -22 24 -28 -29 -31 32 34 -35 37 39 40 -41 -44 -47 49 52 -55 56 57 59 63 64 67 -70 72 73 -75 80 -83 -91 93 -94 -97 -99 0
x -1 2 3 4 -6 7 9 -10 11 13 14 -15 -16 -17 18 19 22 -23 25 26 -30 -31 32 34 35 -37 41 -42 -43 44 45 -46 -49 50 51 54 -55 56 59 60 62 66 -67 69 -70 71 -76 -77 -78 -79 -80 82 -83 84 -86 87 -88 89 91 -92 -94 97 -98 100 0
